WARNING: for repeatability, setting FPU to use double precision
============================[ Problem Statistics ]=============================
|                                                                             |
|  Number of variables:            50                                         |
|  Number of clauses:             218                                         |
|  Parse time:                   0.00 s                                       |
|                                                                             |
============================[ Search Statistics ]==============================
| Conflicts |          ORIGINAL         |          LEARNT          | Progress |
|           |    Vars  Clauses Literals |    Limit  Clauses Lit/Cl |          |
===============================================================================
===============================================================================
restarts              : 1
conflicts             : 48             (32944 /sec)
decisions             : 55             (0.00 % random) (37749 /sec)
propagations          : 700            (480439 /sec)
conflict literals     : 139            (16.77 % deleted)
Memory used           : 20.00 MB
CPU time              : 0.001457 s

UNSATISFIABLE
